System = diamond Si
ISTART = 0
ICHARG = 2
ENCUT = 300
ISMEAR = 0
SIGMA = 0.1
IBRION = -1
ISIF = 0
EDIFF = 1E-5
EDIFFG = 2E-2
NSW = 0

LORBIT = 11
LREAL = Auto
